array [1..2] of int: X_INTRODUCED_8_ = [1,-1];
array [1..2] of int: X_INTRODUCED_10_ = [-1,1];
array [1..3] of int: X_INTRODUCED_62_ = [1,-1,-1];
var 1..4: X_INTRODUCED_0_;
var 1..4: X_INTRODUCED_1_;
var 1..4: X_INTRODUCED_2_;
var 1..4: X_INTRODUCED_3_;
var 1..4: X_INTRODUCED_4_;
var 1..4: X_INTRODUCED_5_;
var 1..4: X_INTRODUCED_6_;
var 1..4: X_INTRODUCED_7_;
var -3..3: X_INTRODUCED_9_ ::var_is_introduced :: is_defined_var;
var bool: X_INTRODUCED_11_ ::var_is_introduced :: is_defined_var;
var -3..3: X_INTRODUCED_12_ ::var_is_introduced :: is_defined_var;
var bool: X_INTRODUCED_13_ ::var_is_introduced :: is_defined_var;
var bool: X_INTRODUCED_14_ ::var_is_introduced :: is_defined_var;
var -3..3: X_INTRODUCED_15_ ::var_is_introduced :: is_defined_var;
var bool: X_INTRODUCED_16_ ::var_is_introduced :: is_defined_var;
var -3..3: X_INTRODUCED_17_ ::var_is_introduced :: is_defined_var;
var bool: X_INTRODUCED_18_ ::var_is_introduced :: is_defined_var;
var bool: X_INTRODUCED_19_ ::var_is_introduced :: is_defined_var;
var 0..2: S:: is_defined_var:: output_var;
var 0..1: X_INTRODUCED_20_ ::var_is_introduced :: is_defined_var;
var 0..1: X_INTRODUCED_21_ ::var_is_introduced :: is_defined_var;
var 0..2: M:: output_var;
var bool: X_INTRODUCED_24_ ::var_is_introduced :: is_defined_var;
var bool: X_INTRODUCED_26_ ::var_is_introduced :: is_defined_var;
var 0..1: X_INTRODUCED_27_ ::var_is_introduced :: is_defined_var;
var bool: X_INTRODUCED_29_ ::var_is_introduced :: is_defined_var;
var bool: X_INTRODUCED_30_ ::var_is_introduced :: is_defined_var;
var bool: X_INTRODUCED_31_ ::var_is_introduced :: is_defined_var;
var 0..1: X_INTRODUCED_32_ ::var_is_introduced :: is_defined_var;
var bool: X_INTRODUCED_35_ ::var_is_introduced :: is_defined_var;
var 0..1: X_INTRODUCED_36_ ::var_is_introduced :: is_defined_var;
var bool: X_INTRODUCED_38_ ::var_is_introduced :: is_defined_var;
var bool: X_INTRODUCED_39_ ::var_is_introduced :: is_defined_var;
var 0..1: X_INTRODUCED_40_ ::var_is_introduced :: is_defined_var;
var 0..2: X_INTRODUCED_42_ ::var_is_introduced :: is_defined_var;
var bool: X_INTRODUCED_43_ ::var_is_introduced :: is_defined_var;
var bool: X_INTRODUCED_44_ ::var_is_introduced :: is_defined_var;
var 0..1: X_INTRODUCED_45_ ::var_is_introduced :: is_defined_var;
var bool: X_INTRODUCED_46_ ::var_is_introduced :: is_defined_var;
var bool: X_INTRODUCED_47_ ::var_is_introduced :: is_defined_var;
var 0..1: X_INTRODUCED_48_ ::var_is_introduced :: is_defined_var;
var 0..2: X_INTRODUCED_49_ ::var_is_introduced :: is_defined_var;
var bool: X_INTRODUCED_50_ ::var_is_introduced :: is_defined_var;
var 0..1: X_INTRODUCED_51_ ::var_is_introduced :: is_defined_var;
var bool: X_INTRODUCED_52_ ::var_is_introduced :: is_defined_var;
var 0..1: X_INTRODUCED_53_ ::var_is_introduced :: is_defined_var;
var 0..2: X_INTRODUCED_54_ ::var_is_introduced :: is_defined_var;
var 0..2: X_INTRODUCED_58_ ::var_is_introduced :: is_defined_var;
var 0..2: X_INTRODUCED_63_ ::var_is_introduced :: is_defined_var;
var 0..2: X_INTRODUCED_64_ ::var_is_introduced :: is_defined_var;
var -3..3: X_INTRODUCED_67_ ::var_is_introduced :: is_defined_var;
var -3..3: X_INTRODUCED_69_ ::var_is_introduced :: is_defined_var;
var -3..3: X_INTRODUCED_71_ ::var_is_introduced :: is_defined_var;
var bool: X_INTRODUCED_72_ ::var_is_introduced :: is_defined_var;
var 0..1: X_INTRODUCED_73_ ::var_is_introduced :: is_defined_var;
var bool: X_INTRODUCED_74_ ::var_is_introduced :: is_defined_var;
var 0..1: X_INTRODUCED_75_ ::var_is_introduced :: is_defined_var;
var -16..170: obj:: is_defined_var:: output_var;
var bool: X_INTRODUCED_78_ ::var_is_introduced :: is_defined_var;
var bool: X_INTRODUCED_79_ ::var_is_introduced :: is_defined_var;
var bool: X_INTRODUCED_80_ ::var_is_introduced :: is_defined_var;
var bool: X_INTRODUCED_81_ ::var_is_introduced :: is_defined_var;
var bool: X_INTRODUCED_82_ ::var_is_introduced :: is_defined_var;
var bool: X_INTRODUCED_83_ ::var_is_introduced :: is_defined_var;
var bool: X_INTRODUCED_84_ ::var_is_introduced :: is_defined_var;
var bool: X_INTRODUCED_85_ ::var_is_introduced :: is_defined_var;
var bool: X_INTRODUCED_86_ ::var_is_introduced :: is_defined_var;
var bool: X_INTRODUCED_87_ ::var_is_introduced :: is_defined_var;
var bool: X_INTRODUCED_88_ ::var_is_introduced :: is_defined_var;
var bool: X_INTRODUCED_89_ ::var_is_introduced :: is_defined_var;
var bool: X_INTRODUCED_90_ ::var_is_introduced :: is_defined_var;
var bool: X_INTRODUCED_91_ ::var_is_introduced :: is_defined_var;
var bool: X_INTRODUCED_92_ ::var_is_introduced :: is_defined_var;
var bool: X_INTRODUCED_93_ ::var_is_introduced :: is_defined_var;
array [1..4] of var int: pfc:: output_array([1..4]) = [X_INTRODUCED_0_,X_INTRODUCED_1_,X_INTRODUCED_2_,X_INTRODUCED_3_];
constraint int_lin_eq(X_INTRODUCED_62_,[X_INTRODUCED_58_,X_INTRODUCED_32_,X_INTRODUCED_27_],0):: defines_var(X_INTRODUCED_58_);
constraint int_max(X_INTRODUCED_42_,X_INTRODUCED_58_,X_INTRODUCED_63_):: defines_var(X_INTRODUCED_63_);
constraint int_max(X_INTRODUCED_49_,X_INTRODUCED_63_,X_INTRODUCED_64_):: defines_var(X_INTRODUCED_64_);
constraint int_max(X_INTRODUCED_54_,X_INTRODUCED_64_,M):: defines_var(M);
constraint int_max(X_INTRODUCED_12_,X_INTRODUCED_17_,X_INTRODUCED_67_):: defines_var(X_INTRODUCED_67_);
constraint int_max(X_INTRODUCED_9_,X_INTRODUCED_15_,X_INTRODUCED_69_):: defines_var(X_INTRODUCED_69_);
constraint int_max(X_INTRODUCED_67_,X_INTRODUCED_69_,X_INTRODUCED_71_):: defines_var(X_INTRODUCED_71_);
constraint int_lin_ne(X_INTRODUCED_8_,[X_INTRODUCED_0_,X_INTRODUCED_1_],0);
constraint int_lin_ne(X_INTRODUCED_8_,[X_INTRODUCED_0_,X_INTRODUCED_2_],0);
constraint int_lin_ne(X_INTRODUCED_8_,[X_INTRODUCED_0_,X_INTRODUCED_3_],0);
constraint int_lin_ne(X_INTRODUCED_8_,[X_INTRODUCED_1_,X_INTRODUCED_2_],0);
constraint int_lin_ne(X_INTRODUCED_8_,[X_INTRODUCED_1_,X_INTRODUCED_3_],0);
constraint int_lin_ne(X_INTRODUCED_8_,[X_INTRODUCED_2_,X_INTRODUCED_3_],0);
constraint int_lin_ne(X_INTRODUCED_8_,[X_INTRODUCED_4_,X_INTRODUCED_5_],0);
constraint int_lin_ne(X_INTRODUCED_8_,[X_INTRODUCED_4_,X_INTRODUCED_6_],0);
constraint int_lin_ne(X_INTRODUCED_8_,[X_INTRODUCED_4_,X_INTRODUCED_7_],0);
constraint int_lin_ne(X_INTRODUCED_8_,[X_INTRODUCED_5_,X_INTRODUCED_6_],0);
constraint int_lin_ne(X_INTRODUCED_8_,[X_INTRODUCED_5_,X_INTRODUCED_7_],0);
constraint int_lin_ne(X_INTRODUCED_8_,[X_INTRODUCED_6_,X_INTRODUCED_7_],0);
constraint int_eq_reif(X_INTRODUCED_4_,1,X_INTRODUCED_78_):: defines_var(X_INTRODUCED_78_);
constraint int_eq_reif(X_INTRODUCED_5_,1,X_INTRODUCED_79_):: defines_var(X_INTRODUCED_79_);
constraint int_eq_reif(X_INTRODUCED_6_,1,X_INTRODUCED_80_):: defines_var(X_INTRODUCED_80_);
constraint int_eq_reif(X_INTRODUCED_7_,1,X_INTRODUCED_81_):: defines_var(X_INTRODUCED_81_);
constraint int_eq_reif(X_INTRODUCED_4_,2,X_INTRODUCED_82_):: defines_var(X_INTRODUCED_82_);
constraint int_eq_reif(X_INTRODUCED_5_,2,X_INTRODUCED_83_):: defines_var(X_INTRODUCED_83_);
constraint int_eq_reif(X_INTRODUCED_6_,2,X_INTRODUCED_84_):: defines_var(X_INTRODUCED_84_);
constraint int_eq_reif(X_INTRODUCED_7_,2,X_INTRODUCED_85_):: defines_var(X_INTRODUCED_85_);
constraint int_eq_reif(X_INTRODUCED_4_,3,X_INTRODUCED_86_):: defines_var(X_INTRODUCED_86_);
constraint int_eq_reif(X_INTRODUCED_5_,3,X_INTRODUCED_87_):: defines_var(X_INTRODUCED_87_);
constraint int_eq_reif(X_INTRODUCED_6_,3,X_INTRODUCED_88_):: defines_var(X_INTRODUCED_88_);
constraint int_eq_reif(X_INTRODUCED_7_,3,X_INTRODUCED_89_):: defines_var(X_INTRODUCED_89_);
constraint int_eq_reif(X_INTRODUCED_4_,4,X_INTRODUCED_90_):: defines_var(X_INTRODUCED_90_);
constraint int_eq_reif(X_INTRODUCED_5_,4,X_INTRODUCED_91_):: defines_var(X_INTRODUCED_91_);
constraint int_eq_reif(X_INTRODUCED_6_,4,X_INTRODUCED_92_):: defines_var(X_INTRODUCED_92_);
constraint int_eq_reif(X_INTRODUCED_7_,4,X_INTRODUCED_93_):: defines_var(X_INTRODUCED_93_);
constraint int_lin_le(X_INTRODUCED_8_,[X_INTRODUCED_3_,X_INTRODUCED_1_],-1);
constraint int_lin_eq([1,-1,-1],[X_INTRODUCED_2_,X_INTRODUCED_0_,X_INTRODUCED_9_],0):: defines_var(X_INTRODUCED_9_);
constraint int_lin_le_reif(X_INTRODUCED_10_,[X_INTRODUCED_2_,X_INTRODUCED_0_],-2,X_INTRODUCED_11_):: defines_var(X_INTRODUCED_11_);
constraint int_lin_eq([1,-1,-1],[X_INTRODUCED_0_,X_INTRODUCED_2_,X_INTRODUCED_12_],0):: defines_var(X_INTRODUCED_12_);
constraint int_lin_le_reif(X_INTRODUCED_10_,[X_INTRODUCED_0_,X_INTRODUCED_2_],-2,X_INTRODUCED_13_):: defines_var(X_INTRODUCED_13_);
constraint array_bool_or([X_INTRODUCED_11_,X_INTRODUCED_13_],X_INTRODUCED_14_):: defines_var(X_INTRODUCED_14_);
constraint int_lin_eq([1,-1,-1],[X_INTRODUCED_3_,X_INTRODUCED_1_,X_INTRODUCED_15_],0):: defines_var(X_INTRODUCED_15_);
constraint int_lin_le_reif(X_INTRODUCED_10_,[X_INTRODUCED_3_,X_INTRODUCED_1_],-2,X_INTRODUCED_16_):: defines_var(X_INTRODUCED_16_);
constraint int_lin_eq([1,-1,-1],[X_INTRODUCED_1_,X_INTRODUCED_3_,X_INTRODUCED_17_],0):: defines_var(X_INTRODUCED_17_);
constraint int_lin_le_reif(X_INTRODUCED_10_,[X_INTRODUCED_1_,X_INTRODUCED_3_],-2,X_INTRODUCED_18_):: defines_var(X_INTRODUCED_18_);
constraint array_bool_or([X_INTRODUCED_16_,X_INTRODUCED_18_],X_INTRODUCED_19_):: defines_var(X_INTRODUCED_19_);
constraint int_lin_eq([1,1,-1],[X_INTRODUCED_20_,X_INTRODUCED_21_,S],0):: defines_var(S);
constraint bool2int(X_INTRODUCED_14_,X_INTRODUCED_20_):: defines_var(X_INTRODUCED_20_);
constraint bool2int(X_INTRODUCED_19_,X_INTRODUCED_21_):: defines_var(X_INTRODUCED_21_);
constraint int_lin_le_reif(X_INTRODUCED_8_,[X_INTRODUCED_0_,X_INTRODUCED_1_],-1,X_INTRODUCED_24_):: defines_var(X_INTRODUCED_24_);
constraint int_lin_le(X_INTRODUCED_8_,[X_INTRODUCED_3_,X_INTRODUCED_0_],-1);
constraint array_bool_and([X_INTRODUCED_24_],X_INTRODUCED_26_):: defines_var(X_INTRODUCED_26_);
constraint bool2int(X_INTRODUCED_26_,X_INTRODUCED_27_):: defines_var(X_INTRODUCED_27_);
constraint int_lin_le_reif(X_INTRODUCED_8_,[X_INTRODUCED_0_,X_INTRODUCED_3_],-1,X_INTRODUCED_29_):: defines_var(X_INTRODUCED_29_);
constraint int_lin_le_reif(X_INTRODUCED_8_,[X_INTRODUCED_1_,X_INTRODUCED_0_],-1,X_INTRODUCED_30_):: defines_var(X_INTRODUCED_30_);
constraint array_bool_and([X_INTRODUCED_29_,X_INTRODUCED_30_],X_INTRODUCED_31_):: defines_var(X_INTRODUCED_31_);
constraint bool2int(X_INTRODUCED_31_,X_INTRODUCED_32_):: defines_var(X_INTRODUCED_32_);
constraint int_lin_le(X_INTRODUCED_8_,[X_INTRODUCED_2_,X_INTRODUCED_1_],-1);
constraint array_bool_and([X_INTRODUCED_30_],X_INTRODUCED_35_):: defines_var(X_INTRODUCED_35_);
constraint bool2int(X_INTRODUCED_35_,X_INTRODUCED_36_):: defines_var(X_INTRODUCED_36_);
constraint int_lin_le_reif(X_INTRODUCED_8_,[X_INTRODUCED_1_,X_INTRODUCED_2_],-1,X_INTRODUCED_38_):: defines_var(X_INTRODUCED_38_);
constraint array_bool_and([X_INTRODUCED_24_,X_INTRODUCED_38_],X_INTRODUCED_39_):: defines_var(X_INTRODUCED_39_);
constraint bool2int(X_INTRODUCED_39_,X_INTRODUCED_40_):: defines_var(X_INTRODUCED_40_);
constraint int_lin_eq([1,1,-1],[X_INTRODUCED_40_,X_INTRODUCED_36_,X_INTRODUCED_42_],0):: defines_var(X_INTRODUCED_42_);
constraint int_lin_le_reif(X_INTRODUCED_8_,[X_INTRODUCED_3_,X_INTRODUCED_2_],-1,X_INTRODUCED_43_):: defines_var(X_INTRODUCED_43_);
constraint array_bool_and([X_INTRODUCED_43_],X_INTRODUCED_44_):: defines_var(X_INTRODUCED_44_);
constraint bool2int(X_INTRODUCED_44_,X_INTRODUCED_45_):: defines_var(X_INTRODUCED_45_);
constraint int_lin_le_reif(X_INTRODUCED_8_,[X_INTRODUCED_2_,X_INTRODUCED_3_],-1,X_INTRODUCED_46_):: defines_var(X_INTRODUCED_46_);
constraint array_bool_and([X_INTRODUCED_38_,X_INTRODUCED_46_],X_INTRODUCED_47_):: defines_var(X_INTRODUCED_47_);
constraint bool2int(X_INTRODUCED_47_,X_INTRODUCED_48_):: defines_var(X_INTRODUCED_48_);
constraint int_lin_eq([1,1,-1],[X_INTRODUCED_48_,X_INTRODUCED_45_,X_INTRODUCED_49_],0):: defines_var(X_INTRODUCED_49_);
constraint array_bool_and([X_INTRODUCED_46_],X_INTRODUCED_50_):: defines_var(X_INTRODUCED_50_);
constraint bool2int(X_INTRODUCED_50_,X_INTRODUCED_51_):: defines_var(X_INTRODUCED_51_);
constraint array_bool_and([X_INTRODUCED_29_,X_INTRODUCED_43_],X_INTRODUCED_52_):: defines_var(X_INTRODUCED_52_);
constraint bool2int(X_INTRODUCED_52_,X_INTRODUCED_53_):: defines_var(X_INTRODUCED_53_);
constraint int_lin_eq([1,1,-1],[X_INTRODUCED_53_,X_INTRODUCED_51_,X_INTRODUCED_54_],0):: defines_var(X_INTRODUCED_54_);
constraint int_lin_le_reif(X_INTRODUCED_10_,[X_INTRODUCED_0_,X_INTRODUCED_1_],-1,X_INTRODUCED_72_):: defines_var(X_INTRODUCED_72_);
constraint bool2int(X_INTRODUCED_72_,X_INTRODUCED_73_):: defines_var(X_INTRODUCED_73_);
constraint int_lin_le_reif(X_INTRODUCED_10_,[X_INTRODUCED_3_,X_INTRODUCED_2_],-1,X_INTRODUCED_74_):: defines_var(X_INTRODUCED_74_);
constraint bool2int(X_INTRODUCED_74_,X_INTRODUCED_75_):: defines_var(X_INTRODUCED_75_);
constraint int_lin_eq([4,16,64,64,1,1,-1],[X_INTRODUCED_71_,M,X_INTRODUCED_20_,X_INTRODUCED_21_,X_INTRODUCED_73_,X_INTRODUCED_75_,obj],4):: defines_var(obj);
constraint int_eq_reif(X_INTRODUCED_0_,1,X_INTRODUCED_78_);
constraint int_eq_reif(X_INTRODUCED_0_,2,X_INTRODUCED_79_);
constraint int_eq_reif(X_INTRODUCED_0_,3,X_INTRODUCED_80_);
constraint int_eq_reif(X_INTRODUCED_0_,4,X_INTRODUCED_81_);
constraint int_eq_reif(X_INTRODUCED_1_,1,X_INTRODUCED_82_);
constraint int_eq_reif(X_INTRODUCED_1_,2,X_INTRODUCED_83_);
constraint int_eq_reif(X_INTRODUCED_1_,3,X_INTRODUCED_84_);
constraint int_eq_reif(X_INTRODUCED_1_,4,X_INTRODUCED_85_);
constraint int_eq_reif(X_INTRODUCED_2_,1,X_INTRODUCED_86_);
constraint int_eq_reif(X_INTRODUCED_2_,2,X_INTRODUCED_87_);
constraint int_eq_reif(X_INTRODUCED_2_,3,X_INTRODUCED_88_);
constraint int_eq_reif(X_INTRODUCED_2_,4,X_INTRODUCED_89_);
constraint int_eq_reif(X_INTRODUCED_3_,1,X_INTRODUCED_90_);
constraint int_eq_reif(X_INTRODUCED_3_,2,X_INTRODUCED_91_);
constraint int_eq_reif(X_INTRODUCED_3_,3,X_INTRODUCED_92_);
constraint int_eq_reif(X_INTRODUCED_3_,4,X_INTRODUCED_93_);
solve  minimize obj;
